benchmarks_CP/INST_36x36/45/inst36x36_45_61.dzn
S=6;
start=[|
-1,	-1,	-1,	14,	-1,	-1,	8,	13,	36,	-1,	-1,	5,	-1,	-1,	-1,	4,	28,	24,	-1,	3,	-1,	9,	-1,	22,	27,	1,	18,	-1,	-1,	2,	25,	-1,	-1,	-1,	-1,	-1|
26,	31,	-1,	25,	-1,	-1,	-1,	15,	4,	-1,	-1,	1,	27,	-1,	34,	-1,	-1,	7,	19,	17,	11,	36,	-1,	-1,	30,	-1,	-1,	-1,	5,	-1,	-1,	-1,	-1,	33,	-1,	-1|
-1,	17,	3,	5,	-1,	30,	19,	6,	9,	25,	-1,	11,	32,	35,	-1,	-1,	-1,	1,	-1,	-1,	24,	18,	-1,	16,	15,	22,	-1,	-1,	12,	-1,	-1,	14,	-1,	-1,	-1,	-1|
-1,	-1,	24,	-1,	22,	18,	-1,	27,	-1,	-1,	3,	-1,	-1,	20,	-1,	21,	16,	11,	-1,	-1,	14,	-1,	8,	-1,	-1,	-1,	-1,	10,	-1,	-1,	9,	2,	19,	-1,	-1,	-1|
2,	-1,	1,	8,	-1,	36,	18,	29,	-1,	20,	-1,	12,	-1,	23,	31,	-1,	13,	-1,	26,	-1,	15,	21,	-1,	35,	14,	-1,	-1,	19,	-1,	9,	-1,	22,	11,	3,	-1,	7|
28,	19,	15,	-1,	7,	21,	-1,	-1,	-1,	-1,	-1,	-1,	-1,	3,	-1,	-1,	-1,	-1,	-1,	-1,	27,	10,	-1,	-1,	-1,	-1,	24,	11,	-1,	26,	-1,	-1,	-1,	-1,	-1,	-1|
30,	-1,	-1,	-1,	-1,	-1,	-1,	20,	-1,	-1,	-1,	-1,	10,	-1,	18,	-1,	-1,	23,	25,	27,	-1,	-1,	21,	7,	-1,	-1,	16,	-1,	-1,	34,	-1,	-1,	36,	-1,	4,	2|
-1,	36,	-1,	-1,	-1,	-1,	28,	24,	-1,	13,	-1,	33,	2,	27,	-1,	19,	-1,	9,	-1,	18,	20,	-1,	31,	-1,	-1,	12,	-1,	1,	22,	7,	-1,	35,	21,	30,	-1,	5|
1,	25,	4,	2,	8,	-1,	3,	10,	-1,	17,	-1,	-1,	-1,	-1,	-1,	15,	26,	28,	9,	-1,	-1,	34,	5,	-1,	-1,	6,	-1,	13,	-1,	-1,	-1,	-1,	-1,	19,	-1,	-1|
-1,	-1,	-1,	-1,	12,	-1,	-1,	-1,	2,	-1,	5,	-1,	-1,	36,	-1,	-1,	31,	-1,	17,	-1,	3,	-1,	-1,	-1,	-1,	32,	35,	8,	27,	-1,	16,	-1,	-1,	-1,	-1,	-1|
3,	-1,	-1,	7,	5,	-1,	16,	-1,	19,	1,	-1,	36,	-1,	21,	-1,	-1,	6,	-1,	-1,	15,	-1,	-1,	12,	28,	10,	-1,	-1,	-1,	26,	30,	11,	-1,	9,	-1,	-1,	-1|
-1,	-1,	-1,	-1,	21,	31,	-1,	-1,	-1,	8,	18,	22,	-1,	7,	-1,	-1,	12,	5,	16,	29,	1,	11,	35,	24,	-1,	-1,	17,	36,	-1,	-1,	13,	-1,	-1,	-1,	-1,	-1|
-1,	10,	33,	-1,	4,	23,	-1,	11,	-1,	22,	-1,	-1,	-1,	19,	8,	-1,	-1,	-1,	28,	30,	-1,	-1,	-1,	34,	-1,	-1,	25,	-1,	-1,	-1,	-1,	13,	18,	-1,	14,	17|
31,	-1,	6,	-1,	-1,	-1,	33,	-1,	25,	-1,	-1,	26,	34,	-1,	-1,	-1,	-1,	10,	-1,	-1,	-1,	16,	-1,	15,	-1,	-1,	-1,	-1,	-1,	36,	19,	-1,	4,	-1,	35,	22|
15,	-1,	11,	-1,	25,	-1,	9,	3,	6,	-1,	20,	-1,	-1,	-1,	-1,	-1,	-1,	-1,	22,	-1,	19,	-1,	-1,	-1,	18,	-1,	-1,	35,	-1,	-1,	-1,	-1,	5,	-1,	-1,	-1|
-1,	-1,	-1,	20,	9,	-1,	-1,	14,	-1,	-1,	-1,	-1,	-1,	-1,	33,	-1,	-1,	-1,	-1,	-1,	-1,	35,	32,	-1,	-1,	-1,	30,	-1,	-1,	-1,	-1,	29,	28,	-1,	15,	-1|
-1,	-1,	-1,	19,	-1,	-1,	2,	30,	-1,	-1,	-1,	28,	21,	-1,	-1,	27,	32,	15,	-1,	33,	5,	-1,	-1,	13,	-1,	-1,	-1,	9,	-1,	24,	-1,	-1,	-1,	-1,	20,	26|
-1,	30,	36,	-1,	28,	-1,	23,	-1,	32,	-1,	-1,	35,	20,	-1,	-1,	-1,	18,	-1,	3,	21,	25,	-1,	-1,	11,	-1,	-1,	-1,	-1,	10,	-1,	27,	6,	12,	-1,	24,	33|
-1,	-1,	-1,	27,	1,	-1,	32,	-1,	16,	-1,	28,	-1,	-1,	-1,	29,	-1,	3,	-1,	13,	-1,	-1,	-1,	26,	2,	-1,	31,	-1,	7,	-1,	22,	-1,	-1,	-1,	-1,	-1,	-1|
21,	-1,	-1,	-1,	3,	20,	31,	-1,	33,	-1,	1,	-1,	-1,	9,	25,	-1,	-1,	-1,	32,	-1,	17,	-1,	-1,	29,	11,	16,	6,	5,	8,	-1,	-1,	36,	-1,	18,	-1,	10|
9,	16,	-1,	-1,	2,	6,	-1,	26,	13,	3,	-1,	23,	24,	-1,	-1,	5,	11,	17,	-1,	36,	4,	-1,	-1,	-1,	-1,	30,	-1,	28,	-1,	18,	35,	-1,	-1,	-1,	-1,	-1|
-1,	33,	8,	-1,	-1,	-1,	-1,	-1,	-1,	-1,	-1,	24,	1,	-1,	-1,	-1,	-1,	-1,	-1,	14,	10,	-1,	16,	-1,	-1,	21,	9,	-1,	13,	27,	5,	17,	-1,	29,	31,	28|
-1,	-1,	-1,	23,	36,	12,	14,	-1,	8,	-1,	27,	-1,	7,	28,	21,	31,	-1,	34,	-1,	1,	-1,	33,	11,	18,	26,	-1,	-1,	-1,	-1,	35,	-1,	-1,	-1,	15,	9,	-1|
-1,	18,	-1,	11,	24,	28,	-1,	21,	-1,	-1,	30,	-1,	-1,	-1,	35,	16,	20,	-1,	8,	-1,	23,	-1,	22,	-1,	36,	-1,	33,	-1,	3,	-1,	26,	-1,	-1,	-1,	-1,	-1|
35,	-1,	-1,	-1,	31,	7,	-1,	1,	-1,	23,	-1,	-1,	28,	-1,	-1,	12,	-1,	2,	-1,	-1,	29,	4,	-1,	-1,	-1,	36,	26,	30,	-1,	-1,	32,	8,	13,	11,	5,	-1|
-1,	1,	16,	18,	-1,	-1,	6,	-1,	14,	33,	-1,	-1,	-1,	4,	24,	35,	-1,	-1,	20,	-1,	-1,	31,	-1,	-1,	12,	-1,	-1,	-1,	-1,	28,	34,	-1,	22,	9,	27,	25|
24,	6,	30,	-1,	32,	-1,	36,	-1,	-1,	-1,	7,	8,	13,	-1,	-1,	11,	34,	-1,	21,	-1,	22,	2,	-1,	-1,	-1,	-1,	19,	27,	25,	10,	23,	15,	-1,	-1,	-1,	12|
13,	-1,	-1,	-1,	23,	34,	-1,	-1,	27,	-1,	-1,	-1,	-1,	-1,	-1,	8,	33,	-1,	-1,	-1,	-1,	5,	-1,	-1,	-1,	20,	1,	15,	-1,	-1,	17,	-1,	-1,	26,	-1,	-1|
11,	-1,	-1,	-1,	-1,	-1,	-1,	-1,	-1,	10,	-1,	-1,	-1,	1,	-1,	-1,	-1,	-1,	-1,	-1,	-1,	26,	36,	30,	24,	13,	-1,	-1,	6,	33,	21,	-1,	20,	4,	-1,	29|
12,	29,	26,	-1,	15,	4,	25,	17,	-1,	-1,	13,	30,	-1,	5,	-1,	20,	-1,	-1,	23,	11,	-1,	-1,	-1,	-1,	22,	3,	14,	21,	2,	-1,	-1,	24,	6,	31,	-1,	-1|
-1,	23,	2,	12,	17,	13,	27,	19,	3,	-1,	-1,	-1,	-1,	-1,	-1,	-1,	-1,	-1,	4,	-1,	-1,	7,	-1,	1,	-1,	-1,	-1,	25,	31,	-1,	14,	34,	16,	5,	-1,	-1|
27,	-1,	-1,	-1,	6,	32,	1,	36,	23,	16,	29,	-1,	-1,	12,	-1,	13,	-1,	-1,	-1,	9,	-1,	-1,	33,	14,	-1,	2,	10,	-1,	-1,	-1,	-1,	25,	-1,	28,	18,	-1|
-1,	24,	29,	-1,	18,	-1,	17,	32,	-1,	-1,	-1,	-1,	-1,	34,	-1,	-1,	-1,	-1,	-1,	26,	-1,	-1,	-1,	-1,	5,	14,	27,	23,	-1,	-1,	6,	4,	-1,	-1,	-1,	-1|
20,	-1,	-1,	1,	-1,	-1,	-1,	-1,	-1,	5,	-1,	-1,	-1,	18,	-1,	-1,	-1,	27,	-1,	-1,	-1,	-1,	34,	-1,	8,	26,	-1,	-1,	33,	6,	-1,	-1,	-1,	24,	2,	19|
-1,	-1,	5,	-1,	33,	25,	26,	35,	21,	-1,	-1,	-1,	-1,	2,	6,	-1,	-1,	-1,	-1,	19,	30,	-1,	17,	23,	34,	-1,	-1,	29,	4,	13,	-1,	1,	-1,	-1,	3,	-1|
36,	3,	-1,	-1,	-1,	-1,	10,	8,	28,	15,	-1,	-1,	17,	-1,	32,	25,	23,	-1,	-1,	-1,	-1,	-1,	2,	20,	35,	-1,	22,	16,	18,	1,	-1,	-1,	7,	27,	-1,	-1|];
